<?xml version = "1.0" standalone="yes"?>
<!-- This file has been generated by DOcplex version 2.23.222  -->
<CPLEXSolution version="1.0">
 <header
   problemName="CVRP"
   objectiveValue="14890.6"
  />
 <variables>
  <variable name="x_0_1" index="0" value="1.00000"/>
  <variable name="x_0_2" index="1" value="1.00000"/>
  <variable name="x_0_4" index="3" value="1.00000"/>
  <variable name="x_0_6" index="5" value="1.00000"/>
  <variable name="x_0_8" index="7" value="1.00000"/>
  <variable name="x_0_11" index="10" value="1.00000"/>
  <variable name="x_0_12" index="11" value="1.00000"/>
  <variable name="x_0_13" index="12" value="1.00000"/>
  <variable name="x_0_15" index="14" value="1.00000"/>
  <variable name="x_0_16" index="15" value="1.00000"/>
  <variable name="x_0_17" index="16" value="1.00000"/>
  <variable name="x_0_20" index="19" value="1.00000"/>
  <variable name="x_1_0" index="20" value="1.00000"/>
  <variable name="x_2_0" index="40" value="1.00000"/>
  <variable name="x_3_0" index="60" value="1.00000"/>
  <variable name="x_4_0" index="80" value="1.00000"/>
  <variable name="x_5_0" index="100" value="1.00000"/>
  <variable name="x_6_9" index="128" value="1.00000"/>
  <variable name="x_7_0" index="140" value="1.00000"/>
  <variable name="x_8_0" index="160" value="1.00000"/>
  <variable name="x_9_19" index="198" value="1.00000"/>
  <variable name="x_10_5" index="205" value="1.00000"/>
  <variable name="x_11_0" index="220" value="1.00000"/>
  <variable name="x_12_18" index="257" value="1.00000"/>
  <variable name="x_13_0" index="260" value="1.00000"/>
  <variable name="x_14_0" index="280" value="1.00000"/>
  <variable name="x_15_7" index="307" value="1.00000"/>
  <variable name="x_16_0" index="320" value="1.00000"/>
  <variable name="x_17_10" index="350" value="1.00000"/>
  <variable name="x_18_3" index="363" value="1.00000"/>
  <variable name="x_19_0" index="380" value="1.00000"/>
  <variable name="x_20_14" index="414" value="1.00000"/>
  <variable name="u_1" index="420" value="58.00000"/>
  <variable name="u_2" index="421" value="43.00000"/>
  <variable name="u_3" index="422" value="61.00000"/>
  <variable name="u_4" index="423" value="64.00000"/>
  <variable name="u_5" index="424" value="63.00000"/>
  <variable name="u_6" index="425" value="15.00000"/>
  <variable name="u_7" index="426" value="64.00000"/>
  <variable name="u_8" index="427" value="58.00000"/>
  <variable name="u_9" index="428" value="59.00000"/>
  <variable name="u_10" index="429" value="28.00000"/>
  <variable name="u_11" index="430" value="43.00000"/>
  <variable name="u_12" index="431" value="25.00000"/>
  <variable name="u_13" index="432" value="48.00000"/>
  <variable name="u_14" index="433" value="64.00000"/>
  <variable name="u_15" index="434" value="16.00000"/>
  <variable name="u_16" index="435" value="64.00000"/>
  <variable name="u_17" index="436" value="20.00000"/>
  <variable name="u_18" index="437" value="47.00000"/>
  <variable name="u_19" index="438" value="61.00000"/>
  <variable name="u_20" index="439" value="53.00000"/>
 </variables>
</CPLEXSolution>
